Route #1: 33 21 6 43 25 42 20 38 11 18 31 16 2 41 9 24 26 39 10 17 14
Route #2: 19 8
Route #3: 22 5 29 28 32 15 23 4 30 34 12 45 44 37
Route #4: 13 3 36 35 40 27 7
Route #5: 1
Route #6: 
Route #7: 
cost 1426.114418008598
